70
    1    53    46
    2    48    54
    3    31    36
    4    15    11
    5    23    18
    6    33    40
    7    61    65
    8    54    60
    9    41    41
   10    64    70
   11    45    50
   12    24    21
   13    65    62
   14    43    38
   15     6    13
   16    67    69
   17    54    49
   18    58    62
   19    39    41
   20    12    12
   21     1     3
   22     6     6
   23    10    10
   24    37    43
   25    67    69
   26    16    16
   27    56    62
   28    32    38
   29    45    46
   30    10    11
   31    75    68
   32    44    50
   33    50    50
   34    36    33
   35    34    34
   36    48    51
   37    51    52
   38    33    39
   39    10    14
   40    15    17
   41    33    37
   42    39    36
   43    49    48
   44    56    52
   45    25    31
   46    70    69
   47    25    18
   48    52    56
   49    39    39
   50    51    54
   51    14     7
   52    24    24
   53    44    47
   54    49    52
   55    37    37
   56     6    12
   57    69    63
   58    25    25
   59    10    16
   60    45    44
   61    56    63
   62    13    13
   63    10     4
   64     8     7
   65    63    58
   66    44    42
   67    24    17
   68     9     7
   69    39    46
   70    43    40
71
